&control
	calculation = 'relax'
	outdir = './relax_outdir/'
	prefix = 'LaH2'
	etot_conv_thr = 1e-6
	pseudo_dir = '/home/adikshith/qe-6.4.1/pslibrary.1.0.0/pbe/PSEUDOPOTENTIALS'
	forc_conv_thr = 1e-3
/
&system
	ibrav = 2, celldm(1) = 10.7051,
	nat = 2, ntyp = 2,
	ecutwfc = 30,
	occupations = 'smearing',
	smearing = 'mv',
	degauss = 0.01
/
&electrons
	conv_thr = 1e-5
	mixing_beta = 0.7
/
&ions
	ion_dynamics = 'bfgs'
/

ATOMIC_SPECIES
 La 57.078 La.pbe-spdfn-kjpaw_psl.1.0.0.UPF
 H 1.000 H.pbe-kjpaw_psl.1.0.0.UPF

ATOMIC_POSITIONS (alat)
 La 0.00 0.00 0.00 0 0 0
 H  0.25 0.25 0.25 1 1 1
 H  0.25 0.75 0.25 1 1 1

K_POINTS (automatic)
 4 4 4 0 0 0
