&control
	calculation = 'vc-relax'
	outdir = './outdir/'
	prefix = 'CaF2'
	etot_conv_thr = 1e-7
	pseudo_dir = '/home/adikshith/qe-6.4.1/pslibrary.1.0.0/pbe/PSEUDOPOTENTIALS'
/
&system
	ibrav = 2, celldm(1) = 10,
	nat = 2, ntyp = 2,
	ecutwfc = 40,
	occupations = 'smearing',
	degauss = 0.02
/
&electrons
	conv_thr = 1e-6
	mixing_beta = 0.7
/
&ions
/
&cell
	cell_dofree = 'ibrav'
/

ATOMIC_SPECIES
 La 57.078 La.pbe-spdfn-rrkjus_psl.1.0.0.UPF
 H 1.000 H.pbe-n-rrkjus_psl.1.0.0.UPF

ATOMIC_POSITIONS (alat)
 La 0.00 0.00 0.00
 H 0.25 0.25 0.25 

K_POINTS (automatic)
 4 4 4 0 0 0
