&control
	calculation = 'vc-relax'
	outdir = './outdir/'
	prefix = 'CaF2'
	etot_conv_thr = 1e-6
	forc_conv_thr = 1e-3
	pseudo_dir = '/home/adikshith/qe-6.4.1/pslibrary.1.0.0/pbe/PSEUDOPOTENTIALS'
/
&system
	ibrav = 2, celldm(1) = 10,
	nat = 2, ntyp = 2,
	ecutwfc = 25,
	occupations = 'smearing',
	smearing = 'gaussian',
	degauss = 0.01
/
&electrons
	conv_thr = 1e-5
	mixing_beta = 0.7
/
&ions
/
&cell
/

ATOMIC_SPECIES
 La 138.00 La.pbe-spdfn-rrkjus_psl.1.0.0.UPF
 F 18.00 F.pbe-n-rrkjus_psl.1.0.0.UPF

ATOMIC_POSITIONS (alat)
 La 0.00 0.00 0.00 0 0 0
 F 0.25 0.25 0.25 1 1 1

K_POINTS (automatic)
 4 4 4 0 0 0
