&bands
	outdir = './outdir/'
	prefix = 'LaH3'
	filband = 'LaH3.bands.dat'
/
