&control
	calculation = 'relax'
	outdir = './outdir/'
	prefix = 'LaH3_relax'
	pseudo_dir = '/home/adikshith/qe-6.4.1/pslibrary.1.0.0/pbe/PSEUDOPOTENTIALS'
	etot_conv_thr = 1e-6
	forc_conv_thr = 1e-3
/
&system
	ibrav = 2, celldm(1) = 10.5946,
	nat = 3, ntyp = 2,
	ecutwfc = 40, 
	nbnd = 23,
	occupations = 'smearing'
	smearing = 'mv',
	degauss = 0.01
/
&electrons
	conv_thr = 1e-5
	mixing_beta = 0.6
/
&ions
	ion_dynamics = 'bfgs'
/

ATOMIC_SPECIES
 La 57.078 La.pbe-spdfn-kjpaw_psl.1.0.0.UPF
 H 1.000 H.pbe-kjpaw_psl.1.0.0.UPF

ATOMIC_POSITIONS (alat)
 La 0.00 0.00 0.00 0 0 0
 H 0.50 0.00 0.00 1 1 1
 H 0.25 0.25 0.25 1 1 1

K_POINTS (automatic)
 8 8 8 0 0 0
